% Problem taken from "A Comparison of Genetic Algorithms for the Dynamic
% Job Shop Scheduling Problem" by Vasquez and Whitley.
n_jobs = 3;
n_machines = 3;
job_sequence = array2d(jobs, machines, [
	2, 3, 1,
	3, 1, 2,
	1, 3, 2
]);
job_time = array2d(jobs, machines, [
	76, 73, 72,
	56, 74, 68,
	56, 55, 56
]);
